(set-logic QF_S)
(declare-fun var_0xINPUT_176947 () String)
(assert (and (not (= var_0xINPUT_176947 "CQALcCP5TB")) (= (len var_0xINPUT_176947) 0) (= (len var_0xINPUT_176947) 0) (= (len var_0xINPUT_176947) 0) (not (= (len var_0xINPUT_176947) 0)) (= (len var_0xINPUT_176947) 0) (= (len var_0xINPUT_176947) 0) (= (len var_0xINPUT_176947) 0) (not (= (len var_0xINPUT_176947) 0)) (= (len var_0xINPUT_176947) 0) (= (len var_0xINPUT_176947) 0) (= (len var_0xINPUT_176947) 0) (not (= (len var_0xINPUT_176947) 0)) (= (len var_0xINPUT_176947) 0) (= (len var_0xINPUT_176947) 0) (= (len var_0xINPUT_176947) 0) (not (= (len var_0xINPUT_176947) 0)) (= (len var_0xINPUT_176947) 0) (= (len var_0xINPUT_176947) 0) (= (len var_0xINPUT_176947) 0) (not (= (len var_0xINPUT_176947) 0)) (= (len var_0xINPUT_176947) 0) (= (len var_0xINPUT_176947) 0) (= (len var_0xINPUT_176947) 0) (not (= (len var_0xINPUT_176947) 0)) (= (len var_0xINPUT_176947) 0) (not (= var_0xINPUT_176947 "Example:")) (not (= var_0xINPUT_176947 "CQALcCP5TB"))))
(check-sat var_0xINPUT_176947)